nN = 8;
nR = 32;
nH = 1;

a = [[25, 24, 16, 15, 15, 17, 25, 24, 21, 21, 15, 22, 19, 25, 23, 25, 17, 19, 19, 17, 18, 19, 23, 16, 21, 22, 21, 22, 23, 23, 25, 16], [18, 19, 19, 19, 23, 24, 23, 18, 25, 23, 21, 16, 15, 19, 15, 20, 18, 19, 25, 23, 25, 15, 19, 19, 17, 25, 19, 24, 20, 18, 25, 21], [15, 22, 19, 25, 17, 20, 18, 15, 15, 16, 23, 16, 24, 21, 23, 20, 21, 15, 24, 19, 25, 21, 17, 20, 16, 19, 20, 16, 23, 25, 15, 15], [25, 22, 15, 19, 19, 19, 25, 19, 22, 20, 15, 24, 21, 17, 21, 16, 22, 22, 18, 21, 21, 24, 21, 19, 19, 24, 25, 22, 22, 17, 18, 20], [23, 19, 21, 19, 19, 22, 25, 17, 19, 24, 19, 16, 25, 19, 24, 17, 18, 20, 15, 21, 20, 19, 21, 15, 25, 18, 25, 20, 19, 18, 25, 25], [16, 16, 19, 19, 23, 17, 22, 20, 21, 23, 19, 17, 19, 22, 16, 15, 17, 15, 19, 19, 20, 20, 19, 18, 23, 21, 17, 24, 15, 21, 21, 18], [15, 20, 24, 19, 16, 20, 20, 18, 23, 19, 25, 24, 21, 16, 23, 23, 20, 21, 24, 18, 25, 18, 20, 24, 22, 22, 18, 21, 20, 15, 17, 18], [18, 16, 16, 22, 25, 20, 24, 17, 22, 23, 20, 21, 21, 20, 25, 21, 22, 15, 24, 18, 25, 15, 19, 24, 23, 17, 19, 22, 21, 21, 20, 16]];
c = [[[0, 0, 0, 0, 0, 0, 0, 0, 0, 0, 0, 0, 0, 0, 0, 0, 0, 0, 0, 0, 0, 0, 0, 0, 0, 0, 0, 0, 0, 0, 0, 0], [38, 36, 47, 48, 45, 48, 38, 37, 41, 46, 45, 50, 32, 30, 34, 40, 39, 48, 42, 30, 30, 49, 45, 36, 32, 44, 40, 50, 40, 43, 39, 36], [48, 43, 42, 32, 49, 31, 38, 47, 40, 38, 30, 47, 37, 40, 35, 50, 48, 46, 35, 32, 44, 33, 49, 35, 42, 41, 34, 36, 32, 49, 40, 50], [49, 36, 46, 36, 36, 49, 37, 30, 40, 37, 49, 38, 30, 49, 33, 44, 38, 39, 32, 44, 46, 49, 38, 31, 37, 50, 34, 48, 41, 41, 48, 46], [50, 42, 37, 36, 39, 32, 37, 45, 33, 41, 36, 30, 45, 43, 34, 46, 49, 35, 37, 31, 37, 35, 39, 45, 44, 38, 48, 48, 42, 50, 45, 43], [41, 33, 41, 46, 48, 37, 32, 35, 49, 33, 32, 39, 49, 35, 31, 49, 41, 34, 48, 35, 45, 48, 39, 35, 33, 48, 43, 45, 37, 40, 46, 32], [44, 35, 32, 41, 48, 30, 34, 37, 38, 39, 42, 36, 31, 45, 39, 43, 41, 41, 42, 47, 42, 39, 41, 31, 39, 39, 36, 50, 32, 31, 47, 35], [30, 35, 31, 45, 35, 48, 39, 36, 46, 39, 34, 40, 39, 50, 34, 48, 32, 33, 30, 33, 40, 43, 40, 31, 43, 37, 36, 36, 37, 30, 44, 41]], [[0, 0, 0, 0, 0, 0, 0, 0, 0, 0, 0, 0, 0, 0, 0, 0, 0, 0, 0, 0, 0, 0, 0, 0, 0, 0, 0, 0, 0, 0, 0, 0], [0, 0, 0, 0, 0, 0, 0, 0, 0, 0, 0, 0, 0, 0, 0, 0, 0, 0, 0, 0, 0, 0, 0, 0, 0, 0, 0, 0, 0, 0, 0, 0], [42, 33, 48, 41, 49, 38, 45, 42, 39, 39, 42, 36, 34, 36, 40, 41, 46, 45, 47, 44, 41, 43, 38, 31, 34, 50, 39, 31, 43, 41, 35, 31], [42, 34, 47, 47, 33, 50, 48, 48, 32, 49, 33, 43, 41, 30, 35, 44, 33, 38, 47, 35, 49, 32, 47, 33, 32, 49, 44, 36, 38, 35, 30, 41], [39, 37, 38, 48, 36, 47, 40, 47, 45, 40, 39, 34, 38, 37, 34, 35, 49, 30, 42, 37, 33, 37, 34, 46, 42, 42, 46, 39, 35, 48, 46, 40], [42, 38, 39, 42, 38, 45, 45, 38, 41, 39, 37, 45, 45, 31, 40, 46, 49, 37, 39, 37, 37, 35, 34, 43, 35, 34, 44, 36, 41, 45, 44, 36], [38, 45, 41, 39, 46, 47, 35, 49, 48, 42, 48, 50, 50, 50, 35, 46, 41, 41, 43, 50, 43, 44, 30, 40, 39, 41, 30, 30, 49, 43, 49, 38], [38, 48, 41, 33, 41, 43, 46, 48, 31, 47, 48, 37, 49, 30, 39, 43, 42, 41, 31, 48, 38, 37, 34, 30, 39, 40, 37, 50, 49, 36, 37, 47]], [[0, 0, 0, 0, 0, 0, 0, 0, 0, 0, 0, 0, 0, 0, 0, 0, 0, 0, 0, 0, 0, 0, 0, 0, 0, 0, 0, 0, 0, 0, 0, 0], [0, 0, 0, 0, 0, 0, 0, 0, 0, 0, 0, 0, 0, 0, 0, 0, 0, 0, 0, 0, 0, 0, 0, 0, 0, 0, 0, 0, 0, 0, 0, 0], [0, 0, 0, 0, 0, 0, 0, 0, 0, 0, 0, 0, 0, 0, 0, 0, 0, 0, 0, 0, 0, 0, 0, 0, 0, 0, 0, 0, 0, 0, 0, 0], [33, 42, 33, 41, 46, 33, 33, 44, 38, 39, 40, 40, 45, 30, 43, 50, 49, 42, 45, 40, 31, 36, 44, 36, 49, 44, 47, 50, 47, 46, 37, 40], [40, 48, 31, 31, 48, 50, 48, 50, 38, 50, 35, 38, 34, 50, 34, 31, 48, 50, 49, 48, 43, 46, 41, 38, 30, 31, 46, 44, 48, 30, 40, 34], [43, 32, 37, 46, 39, 39, 46, 48, 31, 42, 37, 44, 30, 39, 34, 36, 34, 34, 44, 32, 39, 31, 35, 41, 47, 39, 44, 33, 45, 42, 37, 36], [49, 48, 35, 47, 50, 34, 35, 45, 32, 34, 44, 40, 39, 40, 45, 33, 41, 36, 38, 45, 49, 48, 40, 44, 36, 42, 37, 37, 46, 49, 48, 41], [43, 46, 42, 42, 46, 35, 38, 50, 46, 47, 33, 43, 32, 34, 34, 47, 50, 43, 44, 40, 33, 37, 30, 47, 31, 50, 49, 43, 44, 49, 31, 30]], [[0, 0, 0, 0, 0, 0, 0, 0, 0, 0, 0, 0, 0, 0, 0, 0, 0, 0, 0, 0, 0, 0, 0, 0, 0, 0, 0, 0, 0, 0, 0, 0], [0, 0, 0, 0, 0, 0, 0, 0, 0, 0, 0, 0, 0, 0, 0, 0, 0, 0, 0, 0, 0, 0, 0, 0, 0, 0, 0, 0, 0, 0, 0, 0], [0, 0, 0, 0, 0, 0, 0, 0, 0, 0, 0, 0, 0, 0, 0, 0, 0, 0, 0, 0, 0, 0, 0, 0, 0, 0, 0, 0, 0, 0, 0, 0], [0, 0, 0, 0, 0, 0, 0, 0, 0, 0, 0, 0, 0, 0, 0, 0, 0, 0, 0, 0, 0, 0, 0, 0, 0, 0, 0, 0, 0, 0, 0, 0], [43, 40, 32, 40, 41, 43, 41, 46, 47, 38, 48, 48, 46, 35, 41, 47, 44, 37, 37, 47, 40, 34, 44, 45, 33, 44, 34, 38, 47, 33, 48, 37], [48, 38, 46, 40, 47, 49, 32, 40, 48, 33, 44, 44, 42, 42, 45, 30, 39, 42, 47, 44, 42, 50, 32, 36, 43, 32, 41, 49, 45, 40, 37, 31], [38, 31, 37, 32, 44, 45, 36, 35, 44, 33, 35, 38, 33, 41, 38, 35, 48, 42, 34, 45, 35, 31, 45, 33, 41, 47, 48, 31, 35, 43, 49, 47], [39, 49, 35, 43, 38, 36, 44, 42, 30, 35, 40, 46, 39, 38, 49, 36, 45, 48, 30, 30, 40, 35, 43, 50, 48, 39, 41, 49, 35, 49, 44, 47]], [[0, 0, 0, 0, 0, 0, 0, 0, 0, 0, 0, 0, 0, 0, 0, 0, 0, 0, 0, 0, 0, 0, 0, 0, 0, 0, 0, 0, 0, 0, 0, 0], [0, 0, 0, 0, 0, 0, 0, 0, 0, 0, 0, 0, 0, 0, 0, 0, 0, 0, 0, 0, 0, 0, 0, 0, 0, 0, 0, 0, 0, 0, 0, 0], [0, 0, 0, 0, 0, 0, 0, 0, 0, 0, 0, 0, 0, 0, 0, 0, 0, 0, 0, 0, 0, 0, 0, 0, 0, 0, 0, 0, 0, 0, 0, 0], [0, 0, 0, 0, 0, 0, 0, 0, 0, 0, 0, 0, 0, 0, 0, 0, 0, 0, 0, 0, 0, 0, 0, 0, 0, 0, 0, 0, 0, 0, 0, 0], [0, 0, 0, 0, 0, 0, 0, 0, 0, 0, 0, 0, 0, 0, 0, 0, 0, 0, 0, 0, 0, 0, 0, 0, 0, 0, 0, 0, 0, 0, 0, 0], [41, 36, 40, 30, 50, 31, 32, 31, 49, 39, 47, 42, 49, 45, 49, 50, 47, 44, 48, 48, 32, 32, 44, 35, 49, 35, 34, 30, 39, 49, 49, 38], [31, 35, 42, 43, 40, 46, 33, 42, 40, 31, 41, 32, 33, 31, 31, 42, 47, 43, 40, 33, 43, 48, 31, 40, 45, 46, 33, 47, 35, 33, 41, 49], [31, 39, 41, 37, 40, 42, 34, 45, 50, 50, 32, 42, 35, 37, 40, 43, 46, 36, 34, 41, 44, 40, 33, 43, 37, 31, 39, 40, 44, 38, 46, 40]], [[0, 0, 0, 0, 0, 0, 0, 0, 0, 0, 0, 0, 0, 0, 0, 0, 0, 0, 0, 0, 0, 0, 0, 0, 0, 0, 0, 0, 0, 0, 0, 0], [0, 0, 0, 0, 0, 0, 0, 0, 0, 0, 0, 0, 0, 0, 0, 0, 0, 0, 0, 0, 0, 0, 0, 0, 0, 0, 0, 0, 0, 0, 0, 0], [0, 0, 0, 0, 0, 0, 0, 0, 0, 0, 0, 0, 0, 0, 0, 0, 0, 0, 0, 0, 0, 0, 0, 0, 0, 0, 0, 0, 0, 0, 0, 0], [0, 0, 0, 0, 0, 0, 0, 0, 0, 0, 0, 0, 0, 0, 0, 0, 0, 0, 0, 0, 0, 0, 0, 0, 0, 0, 0, 0, 0, 0, 0, 0], [0, 0, 0, 0, 0, 0, 0, 0, 0, 0, 0, 0, 0, 0, 0, 0, 0, 0, 0, 0, 0, 0, 0, 0, 0, 0, 0, 0, 0, 0, 0, 0], [0, 0, 0, 0, 0, 0, 0, 0, 0, 0, 0, 0, 0, 0, 0, 0, 0, 0, 0, 0, 0, 0, 0, 0, 0, 0, 0, 0, 0, 0, 0, 0], [44, 49, 30, 36, 49, 35, 43, 33, 44, 44, 46, 47, 35, 32, 46, 42, 32, 30, 50, 41, 31, 41, 32, 41, 49, 48, 50, 50, 31, 33, 41, 36], [45, 38, 33, 31, 44, 32, 42, 37, 50, 42, 30, 43, 42, 40, 42, 43, 42, 33, 39, 41, 43, 46, 36, 43, 49, 38, 40, 46, 37, 40, 42, 35]], [[0, 0, 0, 0, 0, 0, 0, 0, 0, 0, 0, 0, 0, 0, 0, 0, 0, 0, 0, 0, 0, 0, 0, 0, 0, 0, 0, 0, 0, 0, 0, 0], [0, 0, 0, 0, 0, 0, 0, 0, 0, 0, 0, 0, 0, 0, 0, 0, 0, 0, 0, 0, 0, 0, 0, 0, 0, 0, 0, 0, 0, 0, 0, 0], [0, 0, 0, 0, 0, 0, 0, 0, 0, 0, 0, 0, 0, 0, 0, 0, 0, 0, 0, 0, 0, 0, 0, 0, 0, 0, 0, 0, 0, 0, 0, 0], [0, 0, 0, 0, 0, 0, 0, 0, 0, 0, 0, 0, 0, 0, 0, 0, 0, 0, 0, 0, 0, 0, 0, 0, 0, 0, 0, 0, 0, 0, 0, 0], [0, 0, 0, 0, 0, 0, 0, 0, 0, 0, 0, 0, 0, 0, 0, 0, 0, 0, 0, 0, 0, 0, 0, 0, 0, 0, 0, 0, 0, 0, 0, 0], [0, 0, 0, 0, 0, 0, 0, 0, 0, 0, 0, 0, 0, 0, 0, 0, 0, 0, 0, 0, 0, 0, 0, 0, 0, 0, 0, 0, 0, 0, 0, 0], [0, 0, 0, 0, 0, 0, 0, 0, 0, 0, 0, 0, 0, 0, 0, 0, 0, 0, 0, 0, 0, 0, 0, 0, 0, 0, 0, 0, 0, 0, 0, 0], [39, 39, 45, 33, 35, 49, 38, 33, 42, 44, 32, 33, 49, 48, 50, 42, 33, 34, 44, 39, 30, 33, 40, 39, 48, 49, 35, 35, 44, 42, 37, 38]], [[0, 0, 0, 0, 0, 0, 0, 0, 0, 0, 0, 0, 0, 0, 0, 0, 0, 0, 0, 0, 0, 0, 0, 0, 0, 0, 0, 0, 0, 0, 0, 0], [0, 0, 0, 0, 0, 0, 0, 0, 0, 0, 0, 0, 0, 0, 0, 0, 0, 0, 0, 0, 0, 0, 0, 0, 0, 0, 0, 0, 0, 0, 0, 0], [0, 0, 0, 0, 0, 0, 0, 0, 0, 0, 0, 0, 0, 0, 0, 0, 0, 0, 0, 0, 0, 0, 0, 0, 0, 0, 0, 0, 0, 0, 0, 0], [0, 0, 0, 0, 0, 0, 0, 0, 0, 0, 0, 0, 0, 0, 0, 0, 0, 0, 0, 0, 0, 0, 0, 0, 0, 0, 0, 0, 0, 0, 0, 0], [0, 0, 0, 0, 0, 0, 0, 0, 0, 0, 0, 0, 0, 0, 0, 0, 0, 0, 0, 0, 0, 0, 0, 0, 0, 0, 0, 0, 0, 0, 0, 0], [0, 0, 0, 0, 0, 0, 0, 0, 0, 0, 0, 0, 0, 0, 0, 0, 0, 0, 0, 0, 0, 0, 0, 0, 0, 0, 0, 0, 0, 0, 0, 0], [0, 0, 0, 0, 0, 0, 0, 0, 0, 0, 0, 0, 0, 0, 0, 0, 0, 0, 0, 0, 0, 0, 0, 0, 0, 0, 0, 0, 0, 0, 0, 0], [0, 0, 0, 0, 0, 0, 0, 0, 0, 0, 0, 0, 0, 0, 0, 0, 0, 0, 0, 0, 0, 0, 0, 0, 0, 0, 0, 0, 0, 0, 0, 0]]];

q = [[[14], [24], [25], [5], [23], [6], [13], [9], [23], [5], [5], [22], [25], [13], [10], [20], [6], [6], [13], [16], [6], [11], [13], [19], [22], [7], [12], [14], [11], [6], [7], [6]], [[25], [9], [20], [21], [22], [15], [17], [18], [10], [13], [7], [16], [23], [16], [6], [25], [18], [15], [5], [24], [19], [6], [24], [23], [22], [15], [17], [24], [8], [11], [17], [19]], [[8], [6], [6], [18], [19], [8], [5], [19], [5], [18], [15], [21], [20], [9], [9], [23], [13], [7], [25], [6], [22], [10], [12], [13], [8], [20], [22], [5], [8], [13], [19], [5]], [[16], [15], [9], [6], [21], [22], [9], [6], [8], [19], [20], [23], [21], [22], [17], [10], [24], [7], [6], [19], [16], [11], [20], [16], [18], [23], [5], [7], [9], [8], [14], [11]], [[10], [10], [16], [12], [12], [9], [9], [18], [25], [22], [7], [17], [19], [10], [6], [20], [9], [21], [12], [12], [23], [18], [16], [25], [6], [11], [23], [5], [14], [5], [25], [17]], [[8], [6], [24], [23], [14], [8], [17], [18], [19], [19], [22], [11], [16], [6], [15], [16], [7], [5], [10], [20], [20], [24], [23], [14], [16], [20], [23], [6], [16], [23], [12], [15]], [[19], [12], [11], [24], [7], [17], [14], [11], [22], [10], [20], [19], [20], [12], [20], [18], [24], [18], [13], [13], [23], [19], [12], [24], [8], [8], [11], [5], [16], [11], [21], [12]], [[24], [13], [25], [19], [8], [15], [11], [9], [6], [21], [14], [24], [8], [19], [21], [20], [19], [11], [18], [21], [5], [18], [25], [17], [11], [6], [7], [5], [20], [14], [13], [10]]];
Q = [[41], [53], [41], [45], [46], [49], [49], [47]];
